* GENERATED BY CHARMM-GUI (http://www.charmm-gui.org) v3.7 on Feb, 08. 2026. JOBID=7053423404
* ORIENT THE MOLECULE ALONG THE Z-AXIS
*

DIMENS CHSIZE 5000000 MAXRES 3000000

! Read topology and parameter files
stream toppar.str

! Read PSF and Coordinates
open read unit 10 card name step1_pdbreader.psf
read psf  unit 10 card

open read unit 10 card name step1_pdbreader.crd
read coor unit 10 card

coor rotate matrix
  -0.2872838222 0.6566176698 -0.6973673646
  -0.3081996535 -0.7527074906 -0.5817597504
  -0.9069073707 0.0477982154 0.4186100232
coor trans xdir -7.399954355 ydir 3.697503173 zdir 26.531058564

stream step2_area.str

open write card unit 10 name step2_orient.pdb
write coor pdb  unit 10 sele .not. segid PWAT end

open write card unit 10 name step2_orient.crd
write coor card unit 10 sele .not. segid PWAT end

stop
