* GENERATED BY CHARMM-GUI (http://www.charmm-gui.org) v3.7 on Feb, 08. 2026. JOBID=7053360594
* ORIENT THE MOLECULE ALONG THE Z-AXIS
*

DIMENS CHSIZE 5000000 MAXRES 3000000

! Read topology and parameter files
stream toppar.str

! Read PSF and Coordinates
open read unit 10 card name step1_pdbreader.psf
read psf  unit 10 card

open read unit 10 card name step1_pdbreader.crd
read coor unit 10 card

coor rotate matrix
  -0.7034262393 0.4569708913 -0.5443979522
  -0.5948530502 0.0407218497 0.8028023291
  0.3890261874 0.8885490057 0.243185711
coor trans xdir 7.408839749 ydir 5.807289718 zdir 22.925017261

stream step2_area.str

open write card unit 10 name step2_orient.pdb
write coor pdb  unit 10 sele .not. segid PWAT end

open write card unit 10 name step2_orient.crd
write coor card unit 10 sele .not. segid PWAT end

stop
